letting n =  10
letting blocks =  [[1, 9], [1, 10], [2, 3], [2, 7], [3, 1], [3, 2], [3, 6], [3, 7], [3, 9], [3, 10], [4, 9], [5, 1], [5, 3], [5, 4], [6, 3], [6, 5], [6, 9], [7, 5], [7, 9], [8, 5], [8, 10], [9, 1], [9, 3], [10, 2], [10, 3], [10, 10]]
